; benchmark generated from python API
(set-info :status unknown)
(declare-fun strlen_72_64 () (_ BitVec 64))
(declare-fun args_0_8 () (_ BitVec 8))
(declare-fun strlen_75_64 () (_ BitVec 64))
(declare-fun args_1_8 () (_ BitVec 8))
(declare-fun sigaction_oldact_171_1216 () (_ BitVec 1216))
(declare-fun sigaction_oldact_176_1216 () (_ BitVec 1216))
(declare-fun sigaction_oldact_187_1216 () (_ BitVec 1216))
(declare-fun sigaction_oldact_203_1216 () (_ BitVec 1216))
(declare-fun sigaction_oldact_232_1216 () (_ BitVec 1216))
(declare-fun sigaction_oldact_287_1216 () (_ BitVec 1216))
(declare-fun sigaction_oldact_386_1216 () (_ BitVec 1216))
(declare-fun sigaction_oldact_570_1216 () (_ BitVec 1216))
(declare-fun sigaction_oldact_1010_1216 () (_ BitVec 1216))
(declare-fun sigaction_oldact_1748_1216 () (_ BitVec 1216))
(assert
 (let (($x351 (= (_ bv1 64) strlen_72_64)))
 (not $x351)))
(assert
 (let ((?x82 (bvadd (_ bv576460752303357824 64) strlen_72_64)))
 (let (($x69 (= (_ bv0 8) args_0_8)))
 (let ((?x46 (ite $x69 (_ bv576460752303357824 64) (_ bv576460752303357825 64))))
 (= ?x46 ?x82)))))
(assert
 (let (($x347 (= (_ bv0 8) args_1_8)))
 (let ((?x355 (ite $x347 (_ bv576460752303357826 64) (_ bv576460752303357827 64))))
 (let ((?x356 (bvsub ?x355 (_ bv576460752303357826 64))))
 (= ?x356 strlen_75_64)))))
(assert
 (let ((?x1831 ((_ extract 127 120) sigaction_oldact_171_1216)))
 (let ((?x2319 (bvand ?x1831 (_ bv4 8))))
 (and (distinct (_ bv0 8) ?x2319) true))))
(assert
 (let ((?x2276 ((_ extract 127 120) sigaction_oldact_176_1216)))
 (let ((?x2398 (bvand ?x2276 (_ bv4 8))))
 (and (distinct (_ bv0 8) ?x2398) true))))
(assert
 (let ((?x2885 ((_ extract 127 120) sigaction_oldact_187_1216)))
 (let ((?x2910 (bvand ?x2885 (_ bv4 8))))
 (= (_ bv0 8) ?x2910))))
(assert
 (let ((?x3841 ((_ extract 127 120) sigaction_oldact_203_1216)))
 (let ((?x3861 (bvand ?x3841 (_ bv4 8))))
 (= (_ bv0 8) ?x3861))))
(assert
 (let ((?x5727 ((_ extract 127 120) sigaction_oldact_232_1216)))
 (let ((?x5752 (bvand ?x5727 (_ bv4 8))))
 (= (_ bv0 8) ?x5752))))
(assert
 (let ((?x9223 ((_ extract 127 120) sigaction_oldact_287_1216)))
 (let ((?x9243 (bvand ?x9223 (_ bv4 8))))
 (= (_ bv0 8) ?x9243))))
(assert
 (let ((?x15903 ((_ extract 127 120) sigaction_oldact_386_1216)))
 (let ((?x15928 (bvand ?x15903 (_ bv4 8))))
 (= (_ bv0 8) ?x15928))))
(assert
 (let ((?x29213 ((_ extract 127 120) sigaction_oldact_570_1216)))
 (let ((?x29219 (bvand ?x29213 (_ bv4 8))))
 (and (distinct (_ bv0 8) ?x29219) true))))
(assert
 (let ((?x57577 ((_ extract 127 120) sigaction_oldact_1010_1216)))
 (let ((?x57592 (bvand ?x57577 (_ bv4 8))))
 (= (_ bv0 8) ?x57592))))
(assert
 (let ((?x99074 ((_ extract 127 120) sigaction_oldact_1748_1216)))
 (let ((?x99090 (bvand ?x99074 (_ bv4 8))))
 (= (_ bv0 8) ?x99090))))
(maximize sigaction_oldact_203_1216)
(maximize sigaction_oldact_386_1216)
(maximize sigaction_oldact_171_1216)
(minimize sigaction_oldact_187_1216)
(maximize sigaction_oldact_1010_1216)
(maximize strlen_75_64)
(minimize sigaction_oldact_171_1216)
(maximize sigaction_oldact_287_1216)
(minimize sigaction_oldact_176_1216)
(minimize sigaction_oldact_570_1216)
(maximize args_0_8)
(minimize sigaction_oldact_203_1216)
(minimize sigaction_oldact_386_1216)
(minimize sigaction_oldact_1010_1216)
(maximize args_1_8)
(minimize args_0_8)
(minimize args_1_8)
(check-sat)
(get-objectives)
